63
125
87	9
86	4
85	7
84	4
83	2
82	7
81	8
80	8
79	6
78	4
77	8
76	3
75	7
74	3
73	3
72	9
71	8
70	7
69	4
68	5
67	7
66	12
65	7
64	10
63	8
62	8
61	7
60	3
59	6
58	9
57	6
56	7
55	9
54	3
53	9
52	7
51	7
50	5
49	6
48	5
47	8
46	7
45	3
44	7
43	7
42	7
41	9
40	6
39	7
38	4
37	9
36	8
35	6
34	2
33	5
32	5
31	7
30	7
29	7
28	4
27	4
26	9
25	5
